
Gurobi 7.0.1 (mac64, Python) logging started Wed Nov 16 17:51:55 2016


Gurobi 7.0.1 (mac64, Python) logging started Wed Nov 16 17:52:03 2016


Gurobi 7.0.1 (mac64, Python) logging started Wed Nov 16 17:52:20 2016


Gurobi 7.0.1 (mac64, Python) logging started Wed Nov 16 17:52:53 2016


Gurobi 7.0.1 (mac64, Python) logging started Wed Nov 16 17:54:51 2016

Optimize a model with 20 rows, 27 columns and 54 nonzeros
Variable types: 18 continuous, 9 integer (9 binary)
Coefficient statistics:
  Matrix range     [1e+00, 1e+00]
  Objective range  [0e+00, 0e+00]
  Bounds range     [1e+00, 1e+00]
  RHS range        [1e+00, 1e+00]
Presolve removed 20 rows and 27 columns
Presolve time: 0.00s
Presolve: All rows and columns removed

Explored 0 nodes (0 simplex iterations) in 0.01 seconds
Thread count was 1 (of 4 available processors)

Solution count 1: 0 
Pool objective bound 0

Optimal solution found (tolerance 1.00e-04)
Best objective 0.000000000000e+00, best bound 0.000000000000e+00, gap -

Gurobi 7.0.1 (mac64, Python) logging started Wed Nov 16 18:10:29 2016

Optimize a model with 20 rows, 27 columns and 54 nonzeros
Variable types: 18 continuous, 9 integer (9 binary)
Coefficient statistics:
  Matrix range     [1e+00, 1e+00]
  Objective range  [5e-01, 4e+00]
  Bounds range     [1e+00, 1e+00]
  RHS range        [1e+00, 1e+00]
Presolve time: 0.00s
Presolved: 20 rows, 27 columns, 54 nonzeros
Variable types: 18 continuous, 9 integer (9 binary)

Root relaxation: objective 4.723713e+00, 15 iterations, 0.00 seconds

    Nodes    |    Current Node    |     Objective Bounds      |     Work
 Expl Unexpl |  Obj  Depth IntInf | Incumbent    BestBd   Gap | It/Node Time

*    0     0               0       4.7237129    4.72371  0.00%     -    0s

Explored 0 nodes (15 simplex iterations) in 0.01 seconds
Thread count was 4 (of 4 available processors)

Solution count 1: 4.72371 
Pool objective bound 4.72371

Optimal solution found (tolerance 1.00e-04)
Best objective 4.723712908962e+00, best bound 4.723712908962e+00, gap 0.0000%

Gurobi 7.0.1 (mac64, Python) logging started Wed Nov 16 18:59:37 2016


Gurobi 7.0.1 (mac64, Python) logging started Wed Nov 16 19:00:19 2016


Gurobi 7.0.1 (mac64, Python) logging started Wed Nov 16 19:01:41 2016

Optimize a model with 29 rows, 99 columns and 279 nonzeros
Variable types: 18 continuous, 81 integer (81 binary)
Coefficient statistics:
  Matrix range     [1e+00, 1e+00]
  Objective range  [5e-01, 4e+01]
  Bounds range     [1e+00, 1e+00]
  RHS range        [1e+00, 1e+00]
Found heuristic solution: objective 211.576
Presolve removed 29 rows and 99 columns
Presolve time: 0.00s
Presolve: All rows and columns removed

Explored 0 nodes (0 simplex iterations) in 0.01 seconds
Thread count was 1 (of 4 available processors)

Solution count 1: 82.0385 
Pool objective bound 82.0385

Optimal solution found (tolerance 1.00e-04)
Best objective 8.203851648071e+01, best bound 8.203851648071e+01, gap 0.0000%

Gurobi 7.0.1 (mac64, Python) logging started Wed Nov 16 20:07:02 2016

Optimize a model with 29 rows, 99 columns and 279 nonzeros
Variable types: 18 continuous, 81 integer (81 binary)
Coefficient statistics:
  Matrix range     [1e+00, 1e+00]
  Objective range  [5e-01, 4e+01]
  Bounds range     [1e+00, 1e+00]
  RHS range        [1e+00, 1e+00]
Found heuristic solution: objective 211.576
Presolve removed 29 rows and 99 columns
Presolve time: 0.00s
Presolve: All rows and columns removed

Explored 0 nodes (0 simplex iterations) in 0.01 seconds
Thread count was 1 (of 4 available processors)

Solution count 1: 82.0385 
Pool objective bound 82.0385

Optimal solution found (tolerance 1.00e-04)
Best objective 8.203851648071e+01, best bound 8.203851648071e+01, gap 0.0000%

Gurobi 7.0.1 (mac64, Python) logging started Wed Nov 16 22:55:10 2016

Optimize a model with 99 rows, 162 columns and 1017 nonzeros
Model has 648 quadratic objective terms
Model has 9 quadratic constraints
Variable types: 81 continuous, 81 integer (81 binary)
Coefficient statistics:
  Matrix range     [1e+00, 8e+00]
  QMatrix range    [1e+00, 8e+00]
  Objective range  [1e+00, 4e+00]
  QObjective range [1e+00, 1e+02]
  Bounds range     [1e+00, 1e+00]
  RHS range        [1e+00, 1e+00]
Presolve removed 27 rows and 27 columns
Presolve time: 0.01s
Presolved: 1374 rows, 999 columns, 4149 nonzeros
Variable types: 918 continuous, 81 integer (81 binary)
Found heuristic solution: objective 114.4076759

Root relaxation: objective 1.704425e+00, 1398 iterations, 0.04 seconds

    Nodes    |    Current Node    |     Objective Bounds      |     Work
 Expl Unexpl |  Obj  Depth IntInf | Incumbent    BestBd   Gap | It/Node Time

     0     0    1.70443    0    5  114.40768    1.70443  98.5%     -    0s
H    0     0                     105.8725052    1.70443  98.4%     -    0s
     0     0    1.82694    0    5  105.87251    1.82694  98.3%     -    0s
     0     0    1.82694    0    7  105.87251    1.82694  98.3%     -    0s
     0     0    1.82694    0    5  105.87251    1.82694  98.3%     -    0s
     0     0    1.82694    0    5  105.87251    1.82694  98.3%     -    0s
H    0     0                     104.5113070    1.82694  98.3%     -    0s
     0     2    1.82694    0    5  104.51131    1.82694  98.3%     -    0s
H   91    93                     104.2341234    2.08927  98.0%  38.5    0s
H 2271  1220                     103.5807091    4.20141  95.9%  30.5    3s
  4110  2445    6.00080   25    6  103.58071    4.46466  95.7%  30.3    5s
  9235  5722    7.01130   35    8  103.58071    5.20141  95.0%  33.4   10s
 15135  9430   10.19729   34    5  103.58071    5.98427  94.2%  34.1   15s
 20755 12920   53.85822   50    5  103.58071    6.20141  94.0%  34.4   22s
H20809 12312                     103.4076759  103.27353  0.13%  34.5   23s

Cutting planes:
  Gomory: 2
  Implied bound: 2
  MIR: 28
  Flow cover: 1

Explored 20817 nodes (720202 simplex iterations) in 23.80 seconds
Thread count was 4 (of 4 available processors)

Solution count 6: 103.408 103.581 104.234 ... 114.408
Pool objective bound 103.408

Optimal solution found (tolerance 1.00e-04)
Best objective 1.034076758536e+02, best bound 1.034076758536e+02, gap 0.0000%

Gurobi 7.0.1 (mac64, Python) logging started Wed Nov 16 23:11:05 2016

Optimize a model with 99 rows, 162 columns and 1017 nonzeros
Model has 648 quadratic objective terms
Model has 9 quadratic constraints
Variable types: 81 continuous, 81 integer (81 binary)
Coefficient statistics:
  Matrix range     [1e+00, 8e+00]
  QMatrix range    [1e+00, 8e+00]
  Objective range  [1e+00, 4e+00]
  QObjective range [1e+00, 1e+02]
  Bounds range     [1e+00, 1e+00]
  RHS range        [1e+00, 1e+00]
Presolve removed 27 rows and 27 columns
Presolve time: 0.01s
Presolved: 1374 rows, 999 columns, 4149 nonzeros
Variable types: 918 continuous, 81 integer (81 binary)
Found heuristic solution: objective 114.4076759

Root relaxation: objective 1.704425e+00, 1398 iterations, 0.04 seconds

    Nodes    |    Current Node    |     Objective Bounds      |     Work
 Expl Unexpl |  Obj  Depth IntInf | Incumbent    BestBd   Gap | It/Node Time

     0     0    1.70443    0    5  114.40768    1.70443  98.5%     -    0s
H    0     0                     105.8725052    1.70443  98.4%     -    0s
     0     0    1.82694    0    5  105.87251    1.82694  98.3%     -    0s
     0     0    1.82694    0    7  105.87251    1.82694  98.3%     -    0s
     0     0    1.82694    0    5  105.87251    1.82694  98.3%     -    0s
     0     0    1.82694    0    5  105.87251    1.82694  98.3%     -    0s
H    0     0                     104.5113070    1.82694  98.3%     -    0s
     0     2    1.82694    0    5  104.51131    1.82694  98.3%     -    0s
H   91    93                     104.2341234    2.08927  98.0%  38.5    0s
H 2271  1220                     103.5807091    4.20141  95.9%  30.5    3s
  3823  2234   11.12957   49   10  103.58071    4.44552  95.7%  30.4    5s
  6996  4327   19.01539   42    5  103.58071    4.98427  95.2%  32.5   10s
  9235  5722    7.01130   35    8  103.58071    5.20141  95.0%  33.4   15s
 13503  8530    8.34970   40    6  103.58071    5.80364  94.4%  34.0   20s
 16212 10128   10.69367   43    8  103.58071    6.01130  94.2%  34.3   25s
 19109 11924    8.98427   24    7  103.58071    6.12136  94.1%  34.2   30s
 20755 12920   53.85822   50    5  103.58071    6.20141  94.0%  34.4   35s
H20809 12312                     103.4076759  103.27353  0.13%  34.5   36s

Cutting planes:
  Gomory: 2
  Implied bound: 2
  MIR: 28
  Flow cover: 1

Explored 20817 nodes (720202 simplex iterations) in 37.03 seconds
Thread count was 4 (of 4 available processors)

Solution count 6: 103.408 103.581 104.234 ... 114.408
Pool objective bound 103.408

Optimal solution found (tolerance 1.00e-04)
Best objective 1.034076758536e+02, best bound 1.034076758536e+02, gap 0.0000%

Gurobi 7.0.1 (mac64, Python) logging started Wed Nov 16 23:11:56 2016

Optimize a model with 99 rows, 162 columns and 1017 nonzeros
Model has 648 quadratic objective terms
Model has 9 quadratic constraints
Variable types: 81 continuous, 81 integer (81 binary)
Coefficient statistics:
  Matrix range     [1e+00, 8e+00]
  QMatrix range    [1e+00, 8e+00]
  Objective range  [1e+00, 4e+00]
  QObjective range [1e+00, 1e+02]
  Bounds range     [1e+00, 1e+00]
  RHS range        [1e+00, 1e+00]
Presolve removed 27 rows and 27 columns
Presolve time: 0.00s
Presolved: 1374 rows, 999 columns, 4149 nonzeros
Variable types: 918 continuous, 81 integer (81 binary)
Found heuristic solution: objective 114.4076759

Root relaxation: objective 1.704425e+00, 1398 iterations, 0.03 seconds

    Nodes    |    Current Node    |     Objective Bounds      |     Work
 Expl Unexpl |  Obj  Depth IntInf | Incumbent    BestBd   Gap | It/Node Time

     0     0    1.70443    0    5  114.40768    1.70443  98.5%     -    0s
H    0     0                     105.8725052    1.70443  98.4%     -    0s
     0     0    1.82694    0    5  105.87251    1.82694  98.3%     -    0s
     0     0    1.82694    0    7  105.87251    1.82694  98.3%     -    0s
     0     0    1.82694    0    5  105.87251    1.82694  98.3%     -    0s
     0     0    1.82694    0    5  105.87251    1.82694  98.3%     -    0s
H    0     0                     104.5113070    1.82694  98.3%     -    0s
     0     2    1.82694    0    5  104.51131    1.82694  98.3%     -    0s
H   91    93                     104.2341234    2.08927  98.0%  38.5    0s
H 2271  1220                     103.5807091    4.20141  95.9%  30.5    2s
  4383  2628    8.28200   29   10  103.58071    4.53881  95.6%  30.4    5s
  8560  5318   26.60127   51   14  103.58071    5.14224  95.0%  33.3   10s
 12744  8049   10.61905   42    6  103.58071    5.66806  94.5%  33.8   15s
 18313 11384   10.08750   49    6  103.58071    6.11224  94.1%  34.4   20s
 20767 12928   11.93333   45    9  103.58071    7.10419  93.1%  34.4   25s
H20809 12312                     103.4076759  103.27353  0.13%  34.5   26s

Cutting planes:
  Gomory: 2
  Implied bound: 2
  MIR: 28
  Flow cover: 1

Explored 20817 nodes (720202 simplex iterations) in 26.19 seconds
Thread count was 4 (of 4 available processors)

Solution count 6: 103.408 103.581 104.234 ... 114.408
Pool objective bound 103.408

Optimal solution found (tolerance 1.00e-04)
Best objective 1.034076758536e+02, best bound 1.034076758536e+02, gap 0.0000%

Gurobi 7.0.1 (mac64, Python) logging started Wed Nov 16 23:13:02 2016

Optimize a model with 99 rows, 162 columns and 1017 nonzeros
Model has 648 quadratic objective terms
Model has 9 quadratic constraints
Variable types: 81 continuous, 81 integer (81 binary)
Coefficient statistics:
  Matrix range     [1e+00, 8e+00]
  QMatrix range    [1e+00, 8e+00]
  Objective range  [1e+00, 4e+00]
  QObjective range [1e+00, 1e+02]
  Bounds range     [1e+00, 1e+00]
  RHS range        [1e+00, 1e+00]
Presolve removed 27 rows and 27 columns
Presolve time: 0.01s
Presolved: 1374 rows, 999 columns, 4149 nonzeros
Variable types: 918 continuous, 81 integer (81 binary)
Found heuristic solution: objective 114.4076759

Root relaxation: objective 1.704425e+00, 1398 iterations, 0.03 seconds

    Nodes    |    Current Node    |     Objective Bounds      |     Work
 Expl Unexpl |  Obj  Depth IntInf | Incumbent    BestBd   Gap | It/Node Time

     0     0    1.70443    0    5  114.40768    1.70443  98.5%     -    0s
H    0     0                     105.8725052    1.70443  98.4%     -    0s
     0     0    1.82694    0    5  105.87251    1.82694  98.3%     -    0s
     0     0    1.82694    0    7  105.87251    1.82694  98.3%     -    0s
     0     0    1.82694    0    5  105.87251    1.82694  98.3%     -    0s
     0     0    1.82694    0    5  105.87251    1.82694  98.3%     -    0s
H    0     0                     104.5113070    1.82694  98.3%     -    0s
     0     2    1.82694    0    5  104.51131    1.82694  98.3%     -    0s
H   91    93                     104.2341234    2.08927  98.0%  38.5    0s
H 2271  1220                     103.5807091    4.20141  95.9%  30.5    3s
  3058  1736    5.56939   36    8  103.58071    4.36682  95.8%  30.3    5s
  5619  3487    9.71620   36    5  103.58071    4.70810  95.5%  30.9   10s
  8897  5494    9.08397   38    5  103.58071    5.20141  95.0%  33.3   15s
 13938  8759   19.96386   54    9  103.58071    5.86338  94.3%  34.0   20s
 18313 11384   10.08750   49    6  103.58071    6.11224  94.1%  34.4   25s
 20755 12920   53.85822   50    5  103.58071    6.20141  94.0%  34.4   31s
H20809 12312                     103.4076759  103.27353  0.13%  34.5   33s

Cutting planes:
  Gomory: 2
  Implied bound: 2
  MIR: 28
  Flow cover: 1

Explored 20817 nodes (720202 simplex iterations) in 33.39 seconds
Thread count was 4 (of 4 available processors)

Solution count 6: 103.408 103.581 104.234 ... 114.408
Pool objective bound 103.408

Optimal solution found (tolerance 1.00e-04)
Best objective 1.034076758536e+02, best bound 1.034076758536e+02, gap 0.0000%

Gurobi 7.0.1 (mac64, Python) logging started Wed Nov 16 23:36:02 2016

Optimize a model with 99 rows, 162 columns and 972 nonzeros
Model has 648 quadratic objective terms
Model has 9 quadratic constraints
Variable types: 81 continuous, 81 integer (81 binary)
Coefficient statistics:
  Matrix range     [1e+00, 1e+00]
  QMatrix range    [1e+00, 8e+00]
  Objective range  [1e+00, 4e+00]
  QObjective range [1e+00, 1e+02]
  Bounds range     [1e+00, 1e+00]
  RHS range        [1e+00, 1e+00]
Presolve removed 27 rows and 27 columns
Presolve time: 0.00s
Presolved: 1374 rows, 999 columns, 4131 nonzeros
Variable types: 918 continuous, 81 integer (81 binary)
Found heuristic solution: objective 119.3748928
Found heuristic solution: objective 106.4076759

Root relaxation: objective 1.500000e+00, 866 iterations, 0.02 seconds

    Nodes    |    Current Node    |     Objective Bounds      |     Work
 Expl Unexpl |  Obj  Depth IntInf | Incumbent    BestBd   Gap | It/Node Time

     0     0    1.50000    0    3  106.40768    1.50000  98.6%     -    0s
     0     0    1.50000    0    4  106.40768    1.50000  98.6%     -    0s
     0     0    1.54167    0    4  106.40768    1.54167  98.6%     -    0s
     0     0    1.54545    0    4  106.40768    1.54545  98.5%     -    0s
     0     0    2.71494    0    8  106.40768    2.71494  97.4%     -    0s
H    0     0                     105.4076759    2.71494  97.4%     -    0s
     0     0    2.72000    0    8  105.40768    2.72000  97.4%     -    0s
     0     0    2.72000    0    8  105.40768    2.72000  97.4%     -    0s
     0     0    2.72000    0    8  105.40768    2.72000  97.4%     -    0s
     0     2    2.72000    0    7  105.40768    2.72000  97.4%     -    0s
H  129   123                     105.2274798    2.75000  97.4%  30.8    0s
H  306   273                     105.0806598    2.84712  97.3%  28.9    0s
H  436   386                     104.4076759    2.84712  97.3%  29.0    1s

Cutting planes:
  MIR: 49
  Flow cover: 2

Explored 800 nodes (27980 simplex iterations) in 2.77 seconds
Thread count was 4 (of 4 available processors)

Solution count 6: 104.408 105.081 105.227 ... 119.375
Pool objective bound 104.408

Optimal solution found (tolerance 1.00e-04)
Best objective 1.044076758536e+02, best bound 1.044076758536e+02, gap 0.0000%

Gurobi 7.0.1 (mac64, Python) logging started Wed Nov 16 23:44:57 2016

Optimize a model with 99 rows, 162 columns and 972 nonzeros
Model has 640 quadratic objective terms
Model has 9 quadratic constraints
Variable types: 81 continuous, 81 integer (81 binary)
Coefficient statistics:
  Matrix range     [1e+00, 1e+00]
  QMatrix range    [1e+00, 8e+00]
  Objective range  [1e+00, 9e+00]
  QObjective range [1e+00, 1e+02]
  Bounds range     [1e+00, 1e+00]
  RHS range        [1e+00, 1e+00]
Presolve removed 27 rows and 27 columns
Presolve time: 0.00s
Presolved: 1374 rows, 999 columns, 4131 nonzeros
Variable types: 918 continuous, 81 integer (81 binary)
Found heuristic solution: objective 134.4076759

Root relaxation: objective 6.750000e+00, 931 iterations, 0.02 seconds

    Nodes    |    Current Node    |     Objective Bounds      |     Work
 Expl Unexpl |  Obj  Depth IntInf | Incumbent    BestBd   Gap | It/Node Time

     0     0    6.75000    0    3  134.40768    6.75000  95.0%     -    0s
H    0     0                     126.4883007    6.75000  94.7%     -    0s
     0     0    6.75000    0    4  126.48830    6.75000  94.7%     -    0s
     0     0    6.75893    0    4  126.48830    6.75893  94.7%     -    0s
     0     0    6.75893    0    4  126.48830    6.75893  94.7%     -    0s
     0     0    7.00063    0    8  126.48830    7.00063  94.5%     -    0s
     0     0    7.00063    0    8  126.48830    7.00063  94.5%     -    0s
     0     0    7.00063    0    8  126.48830    7.00063  94.5%     -    0s
     0     2    7.00063    0    8  126.48830    7.00063  94.5%     -    0s
H   31    32                     125.2994719    7.00063  94.4%  50.5    0s
H  138   133                     124.2901767    7.00063  94.4%  32.5    0s
H  296   263                     123.7460486    7.00063  94.3%  30.5    0s
H  727   574                     122.9267479    7.20375  94.1%  28.5    1s
H  734   579                     122.3651951    7.20375  94.1%  28.8    1s
  2991  1740   14.31106   42   13  122.36520   10.81854  91.2%  31.7    5s
  6133  4076  115.62155   59    3  122.36520   12.21889  90.0%  29.6   10s
  9429  6330   20.59179   48   17  122.36520   13.03794  89.3%  28.5   15s
 14014  9407   53.88582   60   11  122.36520   14.00000  88.6%  27.8   20s
H14182  9471                     122.2994719   14.00000  88.6%  27.7   20s
H19555 12974                     121.4076759   14.74658  87.9%  27.2   25s
 20723 13669  114.49571   37   17  121.40768  114.49571  5.69%  27.1   30s
 20770 13701  117.47753   62   21  121.40768  117.47753  3.24%  27.1   35s
 20813 13731  117.83185   38   13  121.40768  117.83185  2.95%  27.5   40s
 20847 13754  118.71608   39   17  121.40768  118.71608  2.22%  27.4   45s
*20871 13073              42     121.2994719  121.29402  0.00%  27.7   48s

Cutting planes:
  Gomory: 35
  Implied bound: 8
  MIR: 488
  Flow cover: 22

Explored 20873 nodes (579783 simplex iterations) in 48.04 seconds
Thread count was 4 (of 4 available processors)

Solution count 10: 121.299 121.408 122.299 ... 134.408
Pool objective bound 121.299

Optimal solution found (tolerance 1.00e-04)
Best objective 1.212994719211e+02, best bound 1.212994719211e+02, gap 0.0000%

Gurobi 7.0.1 (mac64, Python) logging started Thu Nov 17 00:03:17 2016

Optimize a model with 99 rows, 162 columns and 972 nonzeros
Model has 640 quadratic objective terms
Model has 9 quadratic constraints
Variable types: 81 continuous, 81 integer (81 binary)
Coefficient statistics:
  Matrix range     [1e+00, 1e+00]
  QMatrix range    [1e+00, 8e+00]
  Objective range  [1e+00, 9e+00]
  QObjective range [1e+00, 1e+02]
  Bounds range     [1e+00, 1e+00]
  RHS range        [1e+00, 1e+00]
Presolve removed 27 rows and 27 columns
Presolve time: 0.00s
Presolved: 1374 rows, 999 columns, 4131 nonzeros
Variable types: 918 continuous, 81 integer (81 binary)
Found heuristic solution: objective 134.4076759

Root relaxation: objective 6.750000e+00, 931 iterations, 0.02 seconds

    Nodes    |    Current Node    |     Objective Bounds      |     Work
 Expl Unexpl |  Obj  Depth IntInf | Incumbent    BestBd   Gap | It/Node Time

     0     0    6.75000    0    3  134.40768    6.75000  95.0%     -    0s
H    0     0                     126.4883007    6.75000  94.7%     -    0s
     0     0    6.75000    0    4  126.48830    6.75000  94.7%     -    0s
     0     0    6.75893    0    4  126.48830    6.75893  94.7%     -    0s
     0     0    6.75893    0    4  126.48830    6.75893  94.7%     -    0s
     0     0    7.00063    0    8  126.48830    7.00063  94.5%     -    0s
     0     0    7.00063    0    8  126.48830    7.00063  94.5%     -    0s
     0     0    7.00063    0    8  126.48830    7.00063  94.5%     -    0s
     0     2    7.00063    0    8  126.48830    7.00063  94.5%     -    0s
H   31    32                     125.2994719    7.00063  94.4%  50.5    0s
H  138   133                     124.2901767    7.00063  94.4%  32.5    0s
H  296   263                     123.7460486    7.00063  94.3%  30.5    0s
H  727   574                     122.9267479    7.20375  94.1%  28.5    1s
H  734   579                     122.3651951    7.20375  94.1%  28.8    1s
  3443  2093   14.91697   48   14  122.36520   11.00000  91.0%  31.2    5s
  8717  5862   29.11965   31   19  122.36520   13.00000  89.4%  28.6   10s
H14182  9471                     122.2994719   14.00000  88.6%  27.7   14s
 15220 10159   24.02676   41   14  122.29947   14.11527  88.5%  27.6   15s
H19555 12974                     121.4076759   14.74658  87.9%  27.2   18s
 20700 13654   20.71472   59    8  121.40768   14.90196  87.7%  27.1   20s
 20741 13681  116.16758   42   19  121.40768  116.16758  4.32%  27.1   25s
 20796 13720  117.65589   27   12  121.40768  117.65589  3.09%  27.5   30s
 20834 13745  118.07913   48   20  121.40768  118.07913  2.74%  27.4   35s
*20871 13073              42     121.2994719  121.29402  0.00%  27.7   39s

Cutting planes:
  Gomory: 35
  Implied bound: 8
  MIR: 488
  Flow cover: 22

Explored 20873 nodes (579783 simplex iterations) in 39.43 seconds
Thread count was 4 (of 4 available processors)

Solution count 10: 121.299 121.408 122.299 ... 134.408
Pool objective bound 121.299

Optimal solution found (tolerance 1.00e-04)
Best objective 1.212994719211e+02, best bound 1.212994719211e+02, gap 0.0000%

Gurobi 7.0.1 (mac64, Python) logging started Thu Nov 17 00:04:35 2016

Optimize a model with 99 rows, 162 columns and 972 nonzeros
Model has 640 quadratic objective terms
Model has 9 quadratic constraints
Variable types: 81 continuous, 81 integer (81 binary)
Coefficient statistics:
  Matrix range     [1e+00, 1e+00]
  QMatrix range    [1e+00, 8e+00]
  Objective range  [1e+00, 9e+00]
  QObjective range [1e+00, 1e+02]
  Bounds range     [1e+00, 1e+00]
  RHS range        [1e+00, 1e+00]
Presolve removed 27 rows and 27 columns
Presolve time: 0.00s
Presolved: 1374 rows, 999 columns, 4131 nonzeros
Variable types: 918 continuous, 81 integer (81 binary)
Found heuristic solution: objective 134.4076759

Root relaxation: objective 6.750000e+00, 931 iterations, 0.02 seconds

    Nodes    |    Current Node    |     Objective Bounds      |     Work
 Expl Unexpl |  Obj  Depth IntInf | Incumbent    BestBd   Gap | It/Node Time

     0     0    6.75000    0    3  134.40768    6.75000  95.0%     -    0s
H    0     0                     126.4883007    6.75000  94.7%     -    0s
     0     0    6.75000    0    4  126.48830    6.75000  94.7%     -    0s
     0     0    6.75893    0    4  126.48830    6.75893  94.7%     -    0s
     0     0    6.75893    0    4  126.48830    6.75893  94.7%     -    0s
     0     0    7.00063    0    8  126.48830    7.00063  94.5%     -    0s
     0     0    7.00063    0    8  126.48830    7.00063  94.5%     -    0s
     0     0    7.00063    0    8  126.48830    7.00063  94.5%     -    0s
     0     2    7.00063    0    8  126.48830    7.00063  94.5%     -    0s
H   31    32                     125.2994719    7.00063  94.4%  50.5    0s
H  138   133                     124.2901767    7.00063  94.4%  32.5    0s
H  296   263                     123.7460486    7.00063  94.3%  30.5    0s
H  727   574                     122.9267479    7.20375  94.1%  28.5    1s
H  734   579                     122.3651951    7.20375  94.1%  28.8    1s
  3144  1858   24.04682   23   13  122.36520   10.89366  91.1%  31.5    5s
  9429  6330   20.59179   48   17  122.36520   13.03794  89.3%  28.5   10s
H14182  9471                     122.2994719   14.00000  88.6%  27.7   13s
 15662 10445   19.39132   45   14  122.29947   14.21477  88.4%  27.5   15s
H19555 12974                     121.4076759   14.74658  87.9%  27.2   18s
 20700 13654   20.71472   59    8  121.40768   14.90196  87.7%  27.1   20s
 20746 13685  116.35658   58   18  121.40768  116.35658  4.16%  27.1   25s
 20800 13722  117.65589   59    8  121.40768  117.65589  3.09%  27.5   30s
 20837 13747  118.09509   55   21  121.40768  118.09509  2.73%  27.4   35s
*20871 13073              42     121.2994719  121.29402  0.00%  27.7   38s

Cutting planes:
  Gomory: 35
  Implied bound: 8
  MIR: 488
  Flow cover: 22

Explored 20873 nodes (579783 simplex iterations) in 38.92 seconds
Thread count was 4 (of 4 available processors)

Solution count 10: 121.299 121.408 122.299 ... 134.408
Pool objective bound 121.299

Optimal solution found (tolerance 1.00e-04)
Best objective 1.212994719211e+02, best bound 1.212994719211e+02, gap 0.0000%
